# Solution for model r3_t27_m5_6 Batch Number: 4
# Finished Task: 22 / 27
# Makespan: 781.0, Total Distance: 772.0, Total Time: 1.2948
# R O S F Batch
0 0 14 0.0 0.0 -1
1 1 22 0.0 0.0 -1
2 2 12 0.0 0.0 -1
3 0 10 576.0 611.0 2
4 1 25 384.0 416.0 0
5 0 17 705.0 739.0 3
6 0 19 471.0 503.0 0
7 1 28 624.0 646.0 1
8 2 26 577.0 614.0 3
9 -1 -1 -1.0 -1.0 3
10 0 5 645.0 678.0 2
11 2 8 518.0 556.0 2
12 2 21 255.0 293.0 0
13 -1 -1 -1.0 -1.0 3
14 0 29 333.0 359.0 0
15 1 7 509.0 530.0 0
16 1 -1 738.0 760.0 3
17 0 -1 751.0 781.0 3
18 1 4 326.0 349.0 0
19 0 3 536.0 563.0 2
20 -1 -1 -1.0 -1.0 1
21 2 24 383.0 414.0 1
22 1 18 236.0 275.0 0
23 -1 -1 -1.0 -1.0 3
24 2 11 437.0 468.0 1
25 1 15 442.0 476.0 0
26 2 -1 680.0 709.0 3
27 -1 -1 -1.0 -1.0 1
28 1 16 680.0 714.0 2
29 0 6 402.0 431.0 0
